QBPP_HJ-_30_025_20_1
30 69 1730
40 24 47 9 20 36 23 6 23 38 43 30 20 3 11 39 43 7 46 26 17 15 17 7 3 1 32 15 12 36
     0     0     0   -27     0     0     0     0     0     0   -48     0     0   -43     0     0     0     0     0     0     0     0   -44   -46     0     0   -21     0   -70   -81
     0     0   -99     0   -28     0   -17     0   -16     0   -42     0     0     0     0     0     0     0     0     0     0   -42     0     0   -95     0     0     0     0     0
     0   -99     0     0     0   -61     0     0     0    -1     0    -5     0     0     0     0     0   -61     0     0     0   -27     0   -79     0     0     0     0     0     0
   -27     0     0     0     0     0     0   -73     0     0     0     0   -61   -96   -77     0     0     0   -21     0     0     0     0     0     0     0     0     0   -78     0
     0   -28     0     0     0     0   -60     0     0   -83     0     0     0     0     0     0   -83   -36     0   -35     0     0     0     0     0     0     0     0     0     0
     0     0   -61     0     0     0     0     0     0     0     0     0     0   -46     0     0     0   -39     0     0     0     0     0     0     0     0   -37     0     0     0
     0   -17     0     0   -60     0     0     0  -100     0     0     0     0     0     0     0     0     0     0     0     0   -37     0     0   -25     0   -94   -71     0     0
     0     0     0   -73     0     0     0     0     0   -81     0     0     0   -91     0     0     0     0     0   -14     0     0   -83     0     0     0     0     0     0     0
     0   -16     0     0     0     0  -100     0     0     0     0     0     0     0     0     0     0   -77     0     0     0     0     0   -21     0     0     0     0     0     0
     0     0    -1     0   -83     0     0   -81     0     0     0     0     0     0     0     0   -20     0     0   -85     0     0     0     0     0   -38   -41   -85     0   -90
   -48   -42     0     0     0     0     0     0     0     0     0   -23   -68   -13    -4     0     0   -95     0   -23   -17     0     0     0     0     0     0     0     0     0
     0     0    -5     0     0     0     0     0     0     0   -23     0   -90     0     0     0     0     0     0     0     0     0     0     0     0   -93   -90     0   -89     0
     0     0     0   -61     0     0     0     0     0     0   -68   -90     0     0     0   -26     0   -36     0     0   -47     0     0     0     0     0     0     0   -41     0
   -43     0     0   -96     0   -46     0   -91     0     0   -13     0     0     0     0     0     0     0   -94   -72   -42     0     0    -2     0     0     0     0     0     0
     0     0     0   -77     0     0     0     0     0     0    -4     0     0     0     0     0   -85   -74     0     0     0     0     0     0   -10     0     0     0     0     0
     0     0     0     0     0     0     0     0     0     0     0     0   -26     0     0     0     0     0   -54     0     0   -13     0     0     0   -59   -36     0     0   -89
     0     0     0     0   -83     0     0     0     0   -20     0     0     0     0   -85     0     0     0     0     0     0   -18   -23     0     0     0     0     0   -50     0
     0     0   -61     0   -36   -39     0     0   -77     0   -95     0   -36     0   -74     0     0     0     0     0   -45     0     0     0     0     0     0     0     0     0
     0     0     0   -21     0     0     0     0     0     0     0     0     0   -94     0   -54     0     0     0     0     0     0     0    -2     0   -75   -16   -83    -2     0
     0     0     0     0   -35     0     0   -14     0   -85   -23     0     0   -72     0     0     0     0     0     0     0     0     0   -96     0     0     0     0   -10     0
     0     0     0     0     0     0     0     0     0     0   -17     0   -47   -42     0     0     0   -45     0     0     0     0     0     0     0     0     0     0     0   -72
     0   -42   -27     0     0     0   -37     0     0     0     0     0     0     0     0   -13   -18     0     0     0     0     0     0     0     0     0     0     0     0     0
   -44     0     0     0     0     0     0   -83     0     0     0     0     0     0     0     0   -23     0     0     0     0     0     0   -77     0   -27     0   -72     0     0
   -46     0   -79     0     0     0     0     0   -21     0     0     0     0    -2     0     0     0     0    -2   -96     0     0   -77     0   -58     0     0     0     0   -83
     0   -95     0     0     0     0   -25     0     0     0     0     0     0     0   -10     0     0     0     0     0     0     0     0   -58     0     0     0     0     0   -15
     0     0     0     0     0     0     0     0     0   -38     0   -93     0     0     0   -59     0     0   -75     0     0     0   -27     0     0     0     0     0   -46     0
   -21     0     0     0     0   -37   -94     0     0   -41     0   -90     0     0     0   -36     0     0   -16     0     0     0     0     0     0     0     0     0     0   -79
     0     0     0     0     0     0   -71     0     0   -85     0     0     0     0     0     0     0     0   -83     0     0     0   -72     0     0     0     0     0    -5     0
   -70     0     0   -78     0     0     0     0     0     0     0   -89   -41     0     0     0   -50     0    -2   -10     0     0     0     0     0   -46     0    -5     0   -20
   -81     0     0     0     0     0     0     0     0   -90     0     0     0     0     0   -89     0     0     0     0   -72     0     0   -83   -15     0   -79     0   -20     0
